[VALIDATOR STDOUT]
Checking plan: /home/jfan5/Safety-gen/runs/benchmark/optic/ferry_20260129_162355/ferry/optic_results/ferry-l10-c06-s10001.plan
Plan executed successfully - checking goal
Plan valid
Final value: 24 

Successful plans:
Value: 24
 /home/jfan5/Safety-gen/runs/benchmark/optic/ferry_20260129_162355/ferry/optic_results/ferry-l10-c06-s10001.plan 24
